1643547
4,59,28,24,29,40,5,22,48,18,41,60,23,2,20,37,63,66,6,42,45,33,54,25,65,10,53,64,44,26,16,8,57,14,7,67,34,50,38,61,36,52,43,13,9,17,56,32,51,21,30,27,49,35,58,15,62,1,47,3,19,46,12,0,11,31,55,39
